WARNING: for repeatability, setting FPU to use double precision
============================[ Problem Statistics ]=============================
|                                                                             |
|  Number of variables:         12998                                         |
|  Number of clauses:           77941                                         |
|  Parse time:                   0.02 s                                       |
|                                                                             |
c ============================[ Search Statistics ]==============================
c | Conflicts |          ORIGINAL         |          LEARNT          | Progress |
c |           |    Vars  Clauses Literals |    Limit  Clauses Lit/Cl |          |
c ===============================================================================
c Switched to VSIDS.
c Switched to LRB.
c Switched to VSIDS.
c ===============================================================================
restarts                  : 1193
conflicts                 : 255614         (3470 /sec)
decisions                 : 6431534        (0.00 % random) (87307 /sec)
propagations              : 139362557      (1891832 /sec)
conflict literals         : 11573132       (25.66 % deleted)

conflicts w/ DIP found    : 169497         (66.31 % of conflicts)
conflicts w/ dangerous DIP: 0              (0.00 % of conflicts)
conflicts w/ DIP-learning : 91             (0.04 % of conflicts)
decisions on ext vars     : 1421           (0.02 % of decisions)
total ext vars            : 24          
tried delete ext vars     : 10          
deleted ext vars          : 10          
max ext vars              : 14          

Memory used               : 63.00 MB
CPU time                  : 73.6654 s
DIP computation time      : 1.6697 s (2.27 % of total time)
ER_sel time               : 0.276182 s
ER_add time               : 0.000213 s
ER_delC time              : 0 s
ER_delV time              : 0.000811 s
ER_sub time               : 0.393583 s
ER_stat time              : 0 s

UNSATISFIABLE
